Route #1: 1 55 36 41 30 5 47 24 17 28 25
Route #2: 1 56 2 22 45 46 16 12 7 11
Route #3: 1 57 27 18 35 52 10 9 54 26 49
Route #4: 1 34 14 6 50 20 42 19 4
Route #5: 1 31 23 43 53 51 3 40 15
Route #6: 1 38 8 33 44 48 21
Route #7: 1 13 37 39 29
cost 1248
